outputs/case_205.model.txt
enhanced_cdd_measures_taken = False
customer_from_high_risk_country = False
enhanced_cdd_measures_taken_before_payout = False
insurance_beneficiary_high_risk = False
enhanced_ongoing_monitoring = False
fatf_non_compliance_announced = False
fatf_serious_deficiency_announced = False
other_concrete_evidence_high_risk = False
high_risk_situation = False
management_approval_obtained = False
reasonable_measures_to_understand_wealth_and_funds_source = False
insurance_beneficiary_is_corporate_or_trustee = False
insurance_beneficiary_enhanced_cdd = False
high_risk_country = False
penalty = False
customer_from_ineffective_aml_high_risk_area = False
high_risk_cdd_measures = False
suspected_money_laundering_or_terrorist_financing = False
enhanced_cdd_measures_required = False
simplified_cdd_not_allowed = False
insurance_beneficiary_high_risk_considered = False